Maximize
 obj: 0 X1
Subject To
 c1:
  + 1 X100 + 1 X108 + 1 X8 + 1 X5 + 1 X142 + 1 X73 + 1 X16 + 1 X6
  + 1 X147 + 1 X93 + 1 X115 + 1 X1 + 1 X21 + 1 X124 + 1 X149 + 1 X96
  + 1 X42 + 1 X10 + 1 X118 + 1 X94
  <= 1
 c2:
  + 1 X66 + 1 X47 + 1 X38 + 1 X59 + 1 X13 + 1 X99 + 1 X33 + 1 X82
  + 1 X10 + 1 X116 + 1 X48 + 1 X74 + 1 X95 + 1 X112 + 1 X18 + 1 X40
  + 1 X93 + 1 X118 + 1 X20
  <= 1
 c3:
  + 1 X27 + 1 X51 + 1 X25 + 1 X93 + 1 X12 + 1 X148 + 1 X20 + 1 X7
  + 1 X83 + 1 X116 + 1 X49 + 1 X84 + 1 X81 + 1 X126 + 1 X137
  <= 1
 c4:
  + 1 X35 + 1 X37 + 1 X16 + 1 X4 + 1 X7 + 1 X107 + 1 X93 + 1 X84
  + 1 X10 + 1 X66 + 1 X38
  <= 1
 c5:
  + 1 X28 + 1 X53 + 1 X65 + 1 X63 + 1 X25 + 1 X42 + 1 X74 + 1 X23
  + 1 X107 + 1 X35 + 1 X97 + 1 X47 + 1 X45 + 1 X124 + 1 X5 + 1 X61
  + 1 X96 + 1 X69 + 1 X22
  <= 1
 c6:
  + 1 X129 + 1 X10 + 1 X41 + 1 X62 + 1 X26 + 1 X70 + 1 X35 + 1 X122
  + 1 X63 + 1 X5
  <= 1
 c7:
  + 1 X106 + 1 X44 + 1 X27 + 1 X138 + 1 X119 + 1 X8
  <= 1
 c8:
  + 1 X7 + 1 X9 + 1 X97 + 1 X99 + 1 X28 + 1 X13 + 1 X27 + 1 X49
  + 1 X48 + 1 X1
  <= 1
 c9:
  + 1 X35 + 1 X104 + 1 X54 + 1 X150
  <= 1
 c10:
  + 1 X14 + 1 X133 + 1 X25 + 1 X68
  <= 1
 c11:
  + 1 X134 + 1 X50 + 1 X140 + 1 X137 + 1 X72 + 1 X117 + 1 X8 + 1 X53
  + 1 X15 + 1 X85 + 1 X119 + 1 X128 + 1 X2 + 1 X100 + 1 X3 + 1 X48
  + 1 X124 + 1 X91
  <= 1
 c12:
  + 1 X37 + 1 X21 + 1 X61 + 1 X146 + 1 X5 + 1 X150 + 1 X118 + 1 X94
  + 1 X63 + 1 X39 + 1 X56 + 1 X144 + 1 X17 + 1 X59 + 1 X12
  <= 1
 c13:
  + 1 X95 + 1 X75 + 1 X71 + 1 X101 + 1 X112 + 1 X18 + 1 X100 + 1 X69
  + 1 X41 + 1 X50 + 1 X118
  <= 1
 c14:
  + 1 X66 + 1 X8 + 1 X130 + 1 X142 + 1 X71 + 1 X64 + 1 X28 + 1 X139
  + 1 X101 + 1 X57 + 1 X10 + 1 X114 + 1 X94 + 1 X131 + 1 X56
  <= 1
 c15:
  + 1 X30 + 1 X102 + 1 X71 + 1 X2 + 1 X142 + 1 X94 + 1 X105 + 1 X112
  + 1 X58 + 1 X22 + 1 X29 + 1 X18 + 1 X97 + 1 X133 + 1 X15 + 1 X103
  <= 1
 c16:
  + 1 X96 + 1 X9 + 1 X117 + 1 X144 + 1 X60 + 1 X20 + 1 X70 + 1 X61
  + 1 X35 + 1 X52 + 1 X47 + 1 X26 + 1 X49 + 1 X37
  <= 1
 c17:
  + 1 X136 + 1 X70 + 1 X23 + 1 X56 + 1 X132 + 1 X145 + 1 X74 + 1 X67
  + 1 X24 + 1 X81 + 1 X48 + 1 X114 + 1 X86 + 1 X150 + 1 X111 + 1 X84
  + 1 X133 + 1 X124 + 1 X148
  <= 1
 c18:
  + 1 X93 + 1 X38 + 1 X98 + 1 X102 + 1 X109 + 1 X51 + 1 X37 + 1 X7
  + 1 X137 + 1 X81 + 1 X118 + 1 X3 + 1 X78 + 1 X97 + 1 X114
  <= 1
 c19:
  + 1 X4 + 1 X97 + 1 X75 + 1 X32
  <= 1
 c20:
  + 1 X148 + 1 X17 + 1 X138 + 1 X145 + 1 X108 + 1 X100 + 1 X29
  <= 1
 c21:
  + 1 X148 + 1 X43 + 1 X110 + 1 X80 + 1 X150 + 1 X44 + 1 X124 + 1 X77
  + 1 X128 + 1 X140 + 1 X84
  <= 1
 c22:
  + 1 X56 + 1 X90 + 1 X12
  <= 1
 c23:
  + 1 X122 + 1 X59 + 1 X120 + 1 X92 + 1 X91 + 1 X79 + 1 X23 + 1 X53
  + 1 X36 + 1 X67 + 1 X37 + 1 X72 + 1 X17 + 1 X73 + 1 X119 + 1 X95
  + 1 X19 + 1 X87 + 1 X125
  <= 1
 c24:
  + 1 X81 + 1 X147 + 1 X142 + 1 X143 + 1 X11 + 1 X60 + 1 X128 + 1 X53
  + 1 X7
  <= 1
 c25:
  + 1 X35 + 1 X66 + 1 X3 + 1 X52 + 1 X91 + 1 X5 + 1 X58 + 1 X92
  + 1 X62 + 1 X114 + 1 X37 + 1 X48 + 1 X147 + 1 X45 + 1 X93 + 1 X14
  + 1 X72 + 1 X30 + 1 X139 + 1 X108
  <= 1
 c26:
  + 1 X104 + 1 X48 + 1 X57 + 1 X6 + 1 X44 + 1 X68 + 1 X90 + 1 X53
  + 1 X149 + 1 X73 + 1 X76 + 1 X79 + 1 X33 + 1 X63 + 1 X25 + 1 X41
  <= 1
 c27:
  + 1 X137 + 1 X52 + 1 X13 + 1 X44 + 1 X58 + 1 X131
  <= 1
 c28:
  + 1 X16 + 1 X94 + 1 X72 + 1 X109 + 1 X98 + 1 X31 + 1 X7 + 1 X122
  + 1 X21 + 1 X27 + 1 X39 + 1 X115 + 1 X120 + 1 X117 + 1 X51 + 1 X58
  + 1 X54 + 1 X48
  <= 1
 c29:
  + 1 X14 + 1 X24
  <= 1
 c30:
  + 1 X137 + 1 X147 + 1 X20 + 1 X129 + 1 X10 + 1 X59 + 1 X110 + 1 X149
  + 1 X114 + 1 X47 + 1 X107 + 1 X43 + 1 X73
  <= 1
 obj1:
  + 77 X1 + 100 X2 + 57 X3 + 14 X4 + 50 X5 + 47 X6 + 34 X7 + 9 X8
  + 33 X9 + 54 X10 + 39 X11 + 59 X12 + 44 X13 + 4 X14 + 32 X15 + 58 X16
  + 50 X17 + 16 X18 + 91 X19 + 72 X20 + 8 X21 + 82 X22 + 36 X23 + 85 X24
  + 23 X25 + 56 X26 + 48 X27 + 11 X28 + 31 X29 + 50 X30 + 35 X31 + 55 X32
  + 17 X33 + 35 X34 + 1 X35 + 91 X36 + 63 X37 + 5 X38 + 5 X39 + 54 X40
  + 12 X41 + 27 X42 + 39 X43 + 65 X44 + 55 X45 + 54 X46 + 20 X47 + 57 X48
  + 91 X49 + 82 X50 + 75 X51 + 33 X52 + 83 X53 + 48 X54 + 41 X55 + 72 X56
  + 82 X57 + 100 X58 + 26 X59 + 29 X60 + 30 X61 + 42 X62 + 55 X63 + 24 X64
  + 46 X65 + 63 X66 + 94 X67 + 76 X68 + 15 X69 + 87 X70 + 84 X71 + 97 X72
  + 26 X73 + 61 X74 + 89 X75 + 47 X76 + 23 X77 + 77 X78 + 46 X79 + 86 X80
  + 46 X81 + 38 X82 + 71 X83 + 92 X84 + 61 X85 + 63 X86 + 48 X87 + 37 X88
  + 95 X89 + 58 X90 + 81 X91 + 74 X92 + 27 X93 + 20 X94 + 100 X95 + 31 X96
  + 40 X97 + 9 X98 + 47 X99 + 62 X100 + 35 X101 + 73 X102 + 47 X103 + 65 X104
  + 59 X105 + 55 X106 + 56 X107 + 56 X108 + 69 X109 + 48 X110 + 25 X111 + 56 X112
  + 15 X113 + 25 X114 + 57 X115 + 35 X116 + 92 X117 + 56 X118 + 45 X119 + 22 X120
  + 30 X121 + 91 X122 + 78 X123 + 71 X124 + 88 X125 + 27 X126 + 59 X127 + 31 X128
  + 10 X129 + 54 X130 + 21 X131 + 58 X132 + 44 X133 + 9 X134 + 49 X135 + 55 X136
  + 21 X137 + 59 X138 + 73 X139 + 76 X140 + 69 X141 + 21 X142 + 6 X143 + 32 X144
  + 83 X145 + 72 X146 + 43 X147 + 33 X148 + 74 X149 + 19 X150
  >= 1
 obj2:
  + 25 X1 + 4 X2 + 21 X3 + 18 X4 + 50 X5 + 8 X6 + 88 X7 + 24 X8
  + 40 X9 + 75 X10 + 6 X11 + 79 X12 + 90 X13 + 23 X14 + 40 X15 + 64 X16
  + 38 X17 + 59 X18 + 87 X19 + 92 X20 + 74 X21 + 95 X22 + 84 X23 + 19 X24
  + 6 X25 + 48 X26 + 71 X27 + 73 X28 + 21 X29 + 33 X30 + 14 X31 + 4 X32
  + 42 X33 + 37 X34 + 88 X35 + 53 X36 + 23 X37 + 90 X38 + 85 X39 + 87 X40
  + 88 X41 + 12 X42 + 4 X43 + 85 X44 + 61 X45 + 77 X46 + 17 X47 + 86 X48
  + 80 X49 + 29 X50 + 99 X51 + 59 X52 + 29 X53 + 7 X54 + 1 X55 + 4 X56
  + 70 X57 + 5 X58 + 32 X59 + 53 X60 + 40 X61 + 54 X62 + 84 X63 + 23 X64
  + 52 X65 + 5 X66 + 25 X67 + 36 X68 + 45 X69 + 12 X70 + 61 X71 + 68 X72
  + 68 X73 + 80 X74 + 33 X75 + 95 X76 + 20 X77 + 12 X78 + 17 X79 + 90 X80
  + 16 X81 + 81 X82 + 11 X83 + 21 X84 + 43 X85 + 18 X86 + 44 X87 + 75 X88
  + 10 X89 + 83 X90 + 95 X91 + 39 X92 + 41 X93 + 58 X94 + 2 X95 + 31 X96
  + 75 X97 + 64 X98 + 77 X99 + 15 X100 + 13 X101 + 98 X102 + 13 X103 + 86 X104
  + 46 X105 + 5 X106 + 18 X107 + 69 X108 + 70 X109 + 97 X110 + 9 X111 + 71 X112
  + 12 X113 + 79 X114 + 44 X115 + 34 X116 + 6 X117 + 65 X118 + 60 X119 + 22 X120
  + 83 X121 + 93 X122 + 38 X123 + 34 X124 + 2 X125 + 44 X126 + 85 X127 + 91 X128
  + 67 X129 + 22 X130 + 18 X131 + 24 X132 + 43 X133 + 78 X134 + 86 X135 + 39 X136
  + 3 X137 + 30 X138 + 29 X139 + 75 X140 + 26 X141 + 21 X142 + 9 X143 + 69 X144
  + 82 X145 + 58 X146 + 67 X147 + 93 X148 + 78 X149 + 96 X150
  >= 2
 obj3:
  + 58 X1 + 61 X2 + 88 X3 + 42 X4 + 66 X5 + 100 X6 + 72 X7 + 37 X8
  + 58 X9 + 88 X10 + 98 X11 + 83 X12 + 19 X13 + 64 X14 + 67 X15 + 76 X16
  + 7 X17 + 38 X18 + 29 X19 + 75 X20 + 35 X21 + 45 X22 + 25 X23 + 82 X24
  + 20 X25 + 96 X26 + 26 X27 + 39 X28 + 79 X29 + 30 X30 + 24 X31 + 13 X32
  + 67 X33 + 3 X34 + 46 X35 + 24 X36 + 47 X37 + 84 X38 + 80 X39 + 48 X40
  + 27 X41 + 92 X42 + 21 X43 + 72 X44 + 25 X45 + 40 X46 + 86 X47 + 49 X48
  + 70 X49 + 35 X50 + 97 X51 + 26 X52 + 46 X53 + 14 X54 + 5 X55 + 44 X56
  + 46 X57 + 46 X58 + 3 X59 + 31 X60 + 25 X61 + 28 X62 + 83 X63 + 70 X64
  + 31 X65 + 81 X66 + 99 X67 + 78 X68 + 32 X69 + 25 X70 + 30 X71 + 87 X72
  + 69 X73 + 86 X74 + 8 X75 + 63 X76 + 45 X77 + 52 X78 + 14 X79 + 76 X80
  + 37 X81 + 98 X82 + 37 X83 + 22 X84 + 48 X85 + 19 X86 + 86 X87 + 22 X88
  + 20 X89 + 88 X90 + 69 X91 + 60 X92 + 49 X93 + 53 X94 + 73 X95 + 28 X96
  + 99 X97 + 82 X98 + 80 X99 + 71 X100 + 41 X101 + 3 X102 + 9 X103 + 86 X104
  + 65 X105 + 52 X106 + 20 X107 + 50 X108 + 84 X109 + 27 X110 + 51 X111 + 99 X112
  + 81 X113 + 89 X114 + 74 X115 + 18 X116 + 27 X117 + 47 X118 + 86 X119 + 49 X120
  + 52 X121 + 50 X122 + 30 X123 + 27 X124 + 25 X125 + 100 X126 + 59 X127 + 77 X128
  + 15 X129 + 15 X130 + 80 X131 + 87 X132 + 21 X133 + 47 X134 + 1 X135 + 13 X136
  + 67 X137 + 44 X138 + 30 X139 + 19 X140 + 45 X141 + 70 X142 + 45 X143 + 38 X144
  + 20 X145 + 33 X146 + 83 X147 + 59 X148 + 89 X149 + 65 X150
  >= 3
 obj4:
  + 99 X1 + 67 X2 + 91 X3 + 10 X4 + 80 X5 + 94 X6 + 40 X7 + 77 X8
  + 75 X9 + 13 X10 + 64 X11 + 36 X12 + 60 X13 + 83 X14 + 34 X15 + 93 X16
  + 82 X17 + 90 X18 + 97 X19 + 42 X20 + 76 X21 + 46 X22 + 51 X23 + 96 X24
  + 8 X25 + 67 X26 + 43 X27 + 37 X28 + 46 X29 + 96 X30 + 82 X31 + 9 X32
  + 71 X33 + 9 X34 + 30 X35 + 34 X36 + 43 X37 + 34 X38 + 46 X39 + 4 X40
  + 10 X41 + 52 X42 + 58 X43 + 83 X44 + 21 X45 + 78 X46 + 94 X47 + 68 X48
  + 8 X49 + 55 X50 + 100 X51 + 42 X52 + 89 X53 + 34 X54 + 100 X55 + 49 X56
  + 11 X57 + 13 X58 + 23 X59 + 8 X60 + 43 X61 + 86 X62 + 84 X63 + 100 X64
  + 45 X65 + 22 X66 + 85 X67 + 65 X68 + 22 X69 + 23 X70 + 98 X71 + 12 X72
  + 42 X73 + 27 X74 + 20 X75 + 46 X76 + 64 X77 + 44 X78 + 58 X79 + 66 X80
  + 59 X81 + 81 X82 + 62 X83 + 56 X84 + 6 X85 + 28 X86 + 33 X87 + 12 X88
  + 99 X89 + 67 X90 + 10 X91 + 58 X92 + 57 X93 + 62 X94 + 64 X95 + 88 X96
  + 16 X97 + 46 X98 + 63 X99 + 76 X100 + 11 X101 + 97 X102 + 24 X103 + 91 X104
  + 41 X105 + 90 X106 + 91 X107 + 3 X108 + 82 X109 + 10 X110 + 91 X111 + 56 X112
  + 47 X113 + 37 X114 + 77 X115 + 2 X116 + 7 X117 + 92 X118 + 87 X119 + 87 X120
  + 60 X121 + 80 X122 + 13 X123 + 46 X124 + 15 X125 + 10 X126 + 37 X127 + 57 X128
  + 87 X129 + 73 X130 + 45 X131 + 99 X132 + 21 X133 + 7 X134 + 46 X135 + 35 X136
  + 91 X137 + 45 X138 + 6 X139 + 65 X140 + 80 X141 + 22 X142 + 9 X143 + 92 X144
  + 97 X145 + 68 X146 + 51 X147 + 6 X148 + 78 X149 + 72 X150
  >= 4
Binary
 X1
 X2
 X3
 X4
 X5
 X6
 X7
 X8
 X9
 X10
 X11
 X12
 X13
 X14
 X15
 X16
 X17
 X18
 X19
 X20
 X21
 X22
 X23
 X24
 X25
 X26
 X27
 X28
 X29
 X30
 X31
 X32
 X33
 X34
 X35
 X36
 X37
 X38
 X39
 X40
 X41
 X42
 X43
 X44
 X45
 X46
 X47
 X48
 X49
 X50
 X51
 X52
 X53
 X54
 X55
 X56
 X57
 X58
 X59
 X60
 X61
 X62
 X63
 X64
 X65
 X66
 X67
 X68
 X69
 X70
 X71
 X72
 X73
 X74
 X75
 X76
 X77
 X78
 X79
 X80
 X81
 X82
 X83
 X84
 X85
 X86
 X87
 X88
 X89
 X90
 X91
 X92
 X93
 X94
 X95
 X96
 X97
 X98
 X99
 X100
 X101
 X102
 X103
 X104
 X105
 X106
 X107
 X108
 X109
 X110
 X111
 X112
 X113
 X114
 X115
 X116
 X117
 X118
 X119
 X120
 X121
 X122
 X123
 X124
 X125
 X126
 X127
 X128
 X129
 X130
 X131
 X132
 X133
 X134
 X135
 X136
 X137
 X138
 X139
 X140
 X141
 X142
 X143
 X144
 X145
 X146
 X147
 X148
 X149
 X150
End
